NAME 
OBJSENSE MAX
ROWS
 N  OBJ
 L  packing[0]
 L  packing[1]
 L  packing[2]
 L  packing[3]
 L  packing[4]
 L  packing[5]
 L  packing[6]
 L  packing[7]
 L  packing[8]
 L  packing[9]
 L  packing[10]
 L  packing[11]
 L  packing[12]
 L  packing[13]
 L  packing[14]
 L  packing[15]
 L  packing[16]
 L  packing[17]
 L  packing[18]
 L  packing[19]
 L  packing[20]
 L  packing[21]
 L  packing[22]
 L  packing[23]
 L  packing[24]
 L  packing[25]
 L  packing[26]
 L  packing[27]
 L  packing[28]
 L  packing[29]
 L  packing[30]
 L  packing[31]
 L  packing[32]
 L  packing[33]
 L  packing[34]
 L  packing[35]
 L  packing[36]
 L  packing[37]
 L  packing[38]
 L  packing[39]
 L  packing[40]
 L  packing[41]
 L  packing[42]
 L  packing[43]
 L  packing[44]
 L  packing[45]
 L  packing[46]
 L  packing[47]
 L  packing[48]
 L  packing[49]
 L  R54     
 L  R55     
 L  R56     
 L  R57     
COLUMNS
    MARKER    'MARKER'                 'INTORG'
    x[1]      OBJ       8
    x[1]      packing[0]  10
    x[1]      packing[1]  108
    x[1]      packing[2]  3
    x[1]      packing[4]  182
    x[1]      packing[5]  12
    x[1]      packing[6]  48
    x[1]      packing[9]  92
    x[1]      packing[10]  40
    x[1]      packing[11]  164
    x[1]      packing[13]  187
    x[1]      packing[14]  196
    x[1]      packing[15]  164
    x[1]      packing[16]  73
    x[1]      packing[17]  56
    x[1]      packing[18]  53
    x[1]      packing[19]  111
    x[1]      packing[20]  178
    x[1]      packing[21]  53
    x[1]      packing[22]  14
    x[1]      packing[23]  84
    x[1]      packing[25]  97
    x[1]      packing[26]  50
    x[1]      packing[27]  78
    x[1]      packing[28]  73
    x[1]      packing[29]  32
    x[1]      packing[30]  182
    x[1]      packing[31]  144
    x[1]      packing[33]  39
    x[1]      packing[34]  62
    x[1]      packing[37]  152
    x[1]      packing[38]  177
    x[1]      packing[39]  77
    x[1]      packing[40]  175
    x[1]      packing[41]  174
    x[1]      packing[42]  153
    x[1]      packing[43]  82
    x[1]      packing[44]  166
    x[1]      packing[45]  44
    x[1]      packing[46]  181
    x[1]      packing[47]  24
    x[1]      packing[48]  147
    x[1]      packing[49]  85
    x[2]      OBJ       77
    x[2]      packing[0]  92
    x[2]      packing[1]  43
    x[2]      packing[2]  164
    x[2]      packing[3]  65
    x[2]      packing[5]  181
    x[2]      packing[6]  103
    x[2]      packing[7]  112
    x[2]      packing[8]  1
    x[2]      packing[9]  116
    x[2]      packing[10]  5
    x[2]      packing[11]  112
    x[2]      packing[12]  33
    x[2]      packing[13]  34
    x[2]      packing[14]  31
    x[2]      packing[15]  166
    x[2]      packing[16]  1
    x[2]      packing[17]  70
    x[2]      packing[19]  28
    x[2]      packing[20]  73
    x[2]      packing[21]  190
    x[2]      packing[24]  112
    x[2]      packing[26]  120
    x[2]      packing[27]  122
    x[2]      packing[30]  172
    x[2]      packing[31]  139
    x[2]      packing[33]  31
    x[2]      packing[34]  193
    x[2]      packing[35]  94
    x[2]      packing[38]  104
    x[2]      packing[40]  169
    x[2]      packing[42]  20
    x[2]      packing[43]  75
    x[2]      packing[45]  100
    x[2]      packing[47]  81
    x[2]      packing[48]  94
    x[2]      R54       1
    x[2]      R55       1
    x[3]      OBJ       95
    x[3]      packing[1]  76
    x[3]      packing[2]  21
    x[3]      packing[3]  43
    x[3]      packing[4]  102
    x[3]      packing[6]  171
    x[3]      packing[7]  108
    x[3]      packing[8]  58
    x[3]      packing[9]  150
    x[3]      packing[10]  131
    x[3]      packing[11]  135
    x[3]      packing[15]  5
    x[3]      packing[16]  72
    x[3]      packing[19]  98
    x[3]      packing[21]  121
    x[3]      packing[22]  191
    x[3]      packing[23]  173
    x[3]      packing[25]  48
    x[3]      packing[26]  162
    x[3]      packing[27]  16
    x[3]      packing[28]  134
    x[3]      packing[30]  149
    x[3]      packing[31]  156
    x[3]      packing[33]  105
    x[3]      packing[34]  157
    x[3]      packing[35]  50
    x[3]      packing[36]  29
    x[3]      packing[37]  193
    x[3]      packing[38]  141
    x[3]      packing[39]  38
    x[3]      packing[40]  161
    x[3]      packing[41]  108
    x[3]      packing[42]  48
    x[3]      packing[43]  70
    x[3]      packing[44]  14
    x[3]      packing[46]  148
    x[3]      packing[47]  36
    x[3]      packing[48]  154
    x[4]      OBJ       70
    x[4]      packing[0]  162
    x[4]      packing[2]  15
    x[4]      packing[3]  142
    x[4]      packing[4]  84
    x[4]      packing[5]  42
    x[4]      packing[6]  40
    x[4]      packing[11]  57
    x[4]      packing[12]  140
    x[4]      packing[15]  109
    x[4]      packing[16]  174
    x[4]      packing[18]  55
    x[4]      packing[19]  128
    x[4]      packing[20]  136
    x[4]      packing[21]  51
    x[4]      packing[22]  110
    x[4]      packing[23]  41
    x[4]      packing[24]  22
    x[4]      packing[25]  26
    x[4]      packing[26]  106
    x[4]      packing[27]  182
    x[4]      packing[28]  9
    x[4]      packing[29]  136
    x[4]      packing[30]  50
    x[4]      packing[31]  12
    x[4]      packing[32]  94
    x[4]      packing[34]  189
    x[4]      packing[35]  153
    x[4]      packing[36]  42
    x[4]      packing[37]  16
    x[4]      packing[38]  90
    x[4]      packing[39]  60
    x[4]      packing[40]  109
    x[4]      packing[41]  111
    x[4]      packing[42]  21
    x[4]      packing[43]  161
    x[4]      packing[44]  10
    x[4]      packing[45]  11
    x[4]      packing[47]  106
    x[4]      packing[48]  147
    x[4]      packing[49]  120
    x[5]      OBJ       47
    x[5]      packing[0]  114
    x[5]      packing[1]  181
    x[5]      packing[4]  30
    x[5]      packing[6]  32
    x[5]      packing[7]  57
    x[5]      packing[8]  180
    x[5]      packing[9]  192
    x[5]      packing[10]  38
    x[5]      packing[11]  116
    x[5]      packing[12]  102
    x[5]      packing[14]  119
    x[5]      packing[15]  86
    x[5]      packing[18]  28
    x[5]      packing[19]  139
    x[5]      packing[20]  160
    x[5]      packing[21]  119
    x[5]      packing[22]  114
    x[5]      packing[23]  73
    x[5]      packing[26]  192
    x[5]      packing[27]  29
    x[5]      packing[29]  196
    x[5]      packing[31]  191
    x[5]      packing[32]  36
    x[5]      packing[33]  127
    x[5]      packing[34]  191
    x[5]      packing[36]  105
    x[5]      packing[37]  54
    x[5]      packing[38]  184
    x[5]      packing[39]  88
    x[5]      packing[40]  144
    x[5]      packing[41]  175
    x[5]      packing[42]  119
    x[5]      packing[43]  171
    x[5]      packing[44]  147
    x[5]      packing[47]  7
    x[5]      packing[48]  29
    x[5]      packing[49]  86
    x[6]      OBJ       20
    x[6]      packing[0]  45
    x[6]      packing[2]  96
    x[6]      packing[3]  66
    x[6]      packing[5]  92
    x[6]      packing[6]  102
    x[6]      packing[8]  192
    x[6]      packing[9]  57
    x[6]      packing[12]  82
    x[6]      packing[14]  113
    x[6]      packing[15]  183
    x[6]      packing[16]  123
    x[6]      packing[17]  93
    x[6]      packing[18]  134
    x[6]      packing[19]  74
    x[6]      packing[20]  84
    x[6]      packing[21]  3
    x[6]      packing[23]  52
    x[6]      packing[24]  17
    x[6]      packing[27]  70
    x[6]      packing[28]  148
    x[6]      packing[31]  156
    x[6]      packing[33]  182
    x[6]      packing[34]  124
    x[6]      packing[35]  108
    x[6]      packing[36]  86
    x[6]      packing[37]  133
    x[6]      packing[38]  196
    x[6]      packing[40]  170
    x[6]      packing[42]  66
    x[6]      packing[43]  176
    x[6]      packing[44]  80
    x[6]      packing[45]  124
    x[6]      packing[46]  170
    x[6]      packing[47]  61
    x[6]      packing[48]  79
    x[6]      packing[49]  174
    x[7]      OBJ       71
    x[7]      packing[0]  53
    x[7]      packing[1]  46
    x[7]      packing[2]  163
    x[7]      packing[3]  40
    x[7]      packing[4]  93
    x[7]      packing[6]  173
    x[7]      packing[7]  60
    x[7]      packing[8]  115
    x[7]      packing[9]  102
    x[7]      packing[10]  77
    x[7]      packing[11]  13
    x[7]      packing[12]  66
    x[7]      packing[13]  61
    x[7]      packing[15]  22
    x[7]      packing[16]  77
    x[7]      packing[17]  16
    x[7]      packing[18]  83
    x[7]      packing[19]  20
    x[7]      packing[20]  58
    x[7]      packing[22]  22
    x[7]      packing[23]  112
    x[7]      packing[24]  139
    x[7]      packing[25]  111
    x[7]      packing[26]  133
    x[7]      packing[27]  115
    x[7]      packing[28]  31
    x[7]      packing[29]  96
    x[7]      packing[30]  78
    x[7]      packing[31]  64
    x[7]      packing[32]  149
    x[7]      packing[33]  85
    x[7]      packing[34]  160
    x[7]      packing[35]  66
    x[7]      packing[36]  98
    x[7]      packing[37]  163
    x[7]      packing[38]  19
    x[7]      packing[40]  110
    x[7]      packing[41]  142
    x[7]      packing[42]  113
    x[7]      packing[45]  136
    x[7]      packing[46]  159
    x[7]      packing[49]  17
    x[7]      R55       1
    x[7]      R56       1
    x[7]      R57       1
    x[8]      OBJ       85
    x[8]      packing[0]  11
    x[8]      packing[1]  60
    x[8]      packing[2]  162
    x[8]      packing[4]  78
    x[8]      packing[5]  101
    x[8]      packing[9]  176
    x[8]      packing[10]  26
    x[8]      packing[11]  41
    x[8]      packing[12]  159
    x[8]      packing[13]  89
    x[8]      packing[16]  176
    x[8]      packing[18]  174
    x[8]      packing[20]  152
    x[8]      packing[21]  97
    x[8]      packing[22]  179
    x[8]      packing[23]  77
    x[8]      packing[24]  57
    x[8]      packing[26]  71
    x[8]      packing[29]  67
    x[8]      packing[30]  166
    x[8]      packing[31]  7
    x[8]      packing[32]  176
    x[8]      packing[33]  170
    x[8]      packing[34]  181
    x[8]      packing[35]  141
    x[8]      packing[36]  76
    x[8]      packing[37]  78
    x[8]      packing[38]  118
    x[8]      packing[39]  125
    x[8]      packing[40]  94
    x[8]      packing[41]  92
    x[8]      packing[43]  107
    x[8]      packing[44]  24
    x[8]      packing[45]  87
    x[8]      packing[46]  99
    x[8]      packing[47]  51
    x[8]      packing[48]  76
    x[8]      packing[49]  75
    x[8]      R54       1
    x[8]      R56       1
    x[8]      R57       1
    x[9]      OBJ       196
    x[9]      packing[0]  8
    x[9]      packing[3]  38
    x[9]      packing[4]  17
    x[9]      packing[7]  100
    x[9]      packing[8]  23
    x[9]      packing[9]  9
    x[9]      packing[10]  57
    x[9]      packing[11]  165
    x[9]      packing[15]  79
    x[9]      packing[17]  131
    x[9]      packing[18]  82
    x[9]      packing[20]  189
    x[9]      packing[21]  17
    x[9]      packing[22]  31
    x[9]      packing[23]  182
    x[9]      packing[24]  154
    x[9]      packing[25]  147
    x[9]      packing[28]  192
    x[9]      packing[29]  120
    x[9]      packing[30]  136
    x[9]      packing[31]  115
    x[9]      packing[32]  108
    x[9]      packing[33]  14
    x[9]      packing[34]  21
    x[9]      packing[35]  50
    x[9]      packing[36]  117
    x[9]      packing[37]  94
    x[9]      packing[38]  56
    x[9]      packing[40]  43
    x[9]      packing[42]  157
    x[9]      packing[43]  172
    x[9]      packing[45]  133
    x[9]      packing[46]  29
    x[9]      packing[47]  18
    x[9]      packing[48]  16
    x[9]      packing[49]  19
    x[9]      R56       1
    x[9]      R57       1
    x[10]     OBJ       57
    x[10]     packing[0]  151
    x[10]     packing[1]  151
    x[10]     packing[2]  184
    x[10]     packing[3]  124
    x[10]     packing[4]  181
    x[10]     packing[5]  190
    x[10]     packing[7]  103
    x[10]     packing[8]  166
    x[10]     packing[9]  190
    x[10]     packing[12]  1
    x[10]     packing[15]  105
    x[10]     packing[16]  43
    x[10]     packing[17]  95
    x[10]     packing[18]  180
    x[10]     packing[19]  97
    x[10]     packing[20]  138
    x[10]     packing[22]  71
    x[10]     packing[23]  2
    x[10]     packing[24]  84
    x[10]     packing[25]  148
    x[10]     packing[26]  108
    x[10]     packing[28]  148
    x[10]     packing[31]  133
    x[10]     packing[32]  172
    x[10]     packing[33]  171
    x[10]     packing[34]  12
    x[10]     packing[35]  129
    x[10]     packing[36]  52
    x[10]     packing[37]  94
    x[10]     packing[38]  65
    x[10]     packing[40]  41
    x[10]     packing[41]  132
    x[10]     packing[42]  85
    x[10]     packing[43]  92
    x[10]     packing[44]  154
    x[10]     packing[45]  187
    x[10]     packing[46]  115
    x[10]     packing[47]  80
    x[10]     packing[48]  32
    x[10]     R54       1
    x[10]     R57       1
    x[11]     OBJ       5
    x[11]     packing[0]  139
    x[11]     packing[1]  58
    x[11]     packing[2]  48
    x[11]     packing[4]  178
    x[11]     packing[5]  75
    x[11]     packing[8]  183
    x[11]     packing[9]  180
    x[11]     packing[10]  52
    x[11]     packing[11]  129
    x[11]     packing[13]  164
    x[11]     packing[14]  186
    x[11]     packing[15]  175
    x[11]     packing[17]  173
    x[11]     packing[18]  51
    x[11]     packing[19]  182
    x[11]     packing[20]  129
    x[11]     packing[21]  107
    x[11]     packing[23]  136
    x[11]     packing[25]  8
    x[11]     packing[27]  78
    x[11]     packing[28]  147
    x[11]     packing[29]  41
    x[11]     packing[31]  94
    x[11]     packing[32]  37
    x[11]     packing[34]  129
    x[11]     packing[35]  158
    x[11]     packing[36]  99
    x[11]     packing[37]  132
    x[11]     packing[38]  192
    x[11]     packing[39]  53
    x[11]     packing[40]  152
    x[11]     packing[41]  153
    x[11]     packing[43]  151
    x[11]     packing[44]  39
    x[11]     packing[45]  55
    x[11]     packing[46]  141
    x[11]     packing[48]  13
    x[11]     packing[49]  73
    x[12]     OBJ       85
    x[12]     packing[0]  113
    x[12]     packing[2]  173
    x[12]     packing[3]  145
    x[12]     packing[4]  96
    x[12]     packing[7]  108
    x[12]     packing[8]  29
    x[12]     packing[9]  4
    x[12]     packing[10]  133
    x[12]     packing[11]  158
    x[12]     packing[12]  198
    x[12]     packing[13]  88
    x[12]     packing[14]  14
    x[12]     packing[15]  123
    x[12]     packing[16]  45
    x[12]     packing[17]  113
    x[12]     packing[19]  35
    x[12]     packing[20]  136
    x[12]     packing[21]  137
    x[12]     packing[23]  28
    x[12]     packing[24]  125
    x[12]     packing[25]  61
    x[12]     packing[26]  46
    x[12]     packing[29]  91
    x[12]     packing[30]  145
    x[12]     packing[32]  84
    x[12]     packing[34]  24
    x[12]     packing[35]  188
    x[12]     packing[38]  57
    x[12]     packing[39]  187
    x[12]     packing[40]  124
    x[12]     packing[41]  83
    x[12]     packing[42]  113
    x[12]     packing[43]  144
    x[12]     packing[45]  47
    x[12]     packing[47]  156
    x[12]     packing[48]  21
    x[12]     packing[49]  60
    x[13]     OBJ       108
    x[13]     packing[0]  20
    x[13]     packing[1]  73
    x[13]     packing[2]  5
    x[13]     packing[4]  147
    x[13]     packing[5]  170
    x[13]     packing[6]  11
    x[13]     packing[7]  47
    x[13]     packing[8]  160
    x[13]     packing[11]  8
    x[13]     packing[12]  93
    x[13]     packing[13]  15
    x[13]     packing[15]  20
    x[13]     packing[16]  45
    x[13]     packing[17]  100
    x[13]     packing[18]  124
    x[13]     packing[19]  89
    x[13]     packing[20]  52
    x[13]     packing[21]  148
    x[13]     packing[23]  156
    x[13]     packing[25]  152
    x[13]     packing[27]  15
    x[13]     packing[28]  9
    x[13]     packing[30]  158
    x[13]     packing[31]  82
    x[13]     packing[32]  161
    x[13]     packing[33]  30
    x[13]     packing[37]  151
    x[13]     packing[38]  80
    x[13]     packing[39]  93
    x[13]     packing[40]  18
    x[13]     packing[41]  136
    x[13]     packing[42]  111
    x[13]     packing[43]  142
    x[13]     packing[45]  51
    x[13]     packing[46]  5
    x[13]     packing[47]  159
    x[13]     R54       1
    x[13]     R56       1
    x[13]     R57       1
    x[14]     OBJ       42
    x[14]     packing[0]  118
    x[14]     packing[2]  150
    x[14]     packing[3]  63
    x[14]     packing[4]  48
    x[14]     packing[5]  191
    x[14]     packing[7]  10
    x[14]     packing[8]  190
    x[14]     packing[9]  194
    x[14]     packing[12]  69
    x[14]     packing[13]  92
    x[14]     packing[14]  120
    x[14]     packing[15]  70
    x[14]     packing[16]  174
    x[14]     packing[19]  137
    x[14]     packing[20]  89
    x[14]     packing[21]  110
    x[14]     packing[22]  164
    x[14]     packing[23]  25
    x[14]     packing[25]  192
    x[14]     packing[28]  129
    x[14]     packing[30]  178
    x[14]     packing[31]  8
    x[14]     packing[32]  148
    x[14]     packing[33]  134
    x[14]     packing[34]  58
    x[14]     packing[36]  72
    x[14]     packing[37]  151
    x[14]     packing[38]  42
    x[14]     packing[39]  192
    x[14]     packing[40]  20
    x[14]     packing[41]  100
    x[14]     packing[42]  49
    x[14]     packing[44]  47
    x[14]     packing[45]  166
    x[14]     packing[46]  195
    x[14]     packing[49]  75
    x[15]     OBJ       86
    x[15]     packing[1]  65
    x[15]     packing[2]  20
    x[15]     packing[3]  175
    x[15]     packing[4]  150
    x[15]     packing[6]  33
    x[15]     packing[8]  79
    x[15]     packing[10]  168
    x[15]     packing[11]  37
    x[15]     packing[12]  112
    x[15]     packing[13]  10
    x[15]     packing[17]  82
    x[15]     packing[18]  170
    x[15]     packing[19]  46
    x[15]     packing[20]  50
    x[15]     packing[21]  88
    x[15]     packing[22]  36
    x[15]     packing[23]  29
    x[15]     packing[24]  167
    x[15]     packing[25]  188
    x[15]     packing[26]  34
    x[15]     packing[27]  47
    x[15]     packing[28]  179
    x[15]     packing[29]  193
    x[15]     packing[30]  34
    x[15]     packing[31]  91
    x[15]     packing[32]  136
    x[15]     packing[34]  3
    x[15]     packing[35]  22
    x[15]     packing[36]  18
    x[15]     packing[38]  186
    x[15]     packing[39]  18
    x[15]     packing[40]  153
    x[15]     packing[42]  182
    x[15]     packing[44]  6
    x[15]     packing[45]  141
    x[15]     packing[46]  127
    x[15]     packing[47]  174
    x[15]     packing[48]  134
    x[15]     packing[49]  120
    x[16]     OBJ       113
    x[16]     packing[0]  150
    x[16]     packing[1]  99
    x[16]     packing[2]  81
    x[16]     packing[4]  163
    x[16]     packing[5]  9
    x[16]     packing[6]  121
    x[16]     packing[7]  48
    x[16]     packing[11]  12
    x[16]     packing[12]  4
    x[16]     packing[14]  81
    x[16]     packing[15]  118
    x[16]     packing[19]  80
    x[16]     packing[20]  127
    x[16]     packing[21]  92
    x[16]     packing[22]  37
    x[16]     packing[23]  11
    x[16]     packing[24]  124
    x[16]     packing[27]  4
    x[16]     packing[28]  13
    x[16]     packing[29]  146
    x[16]     packing[31]  99
    x[16]     packing[32]  66
    x[16]     packing[33]  45
    x[16]     packing[34]  141
    x[16]     packing[35]  170
    x[16]     packing[38]  157
    x[16]     packing[39]  126
    x[16]     packing[41]  6
    x[16]     packing[42]  155
    x[16]     packing[43]  61
    x[16]     packing[44]  13
    x[16]     packing[45]  63
    x[16]     packing[46]  158
    x[16]     packing[47]  63
    x[16]     packing[48]  188
    x[16]     R54       1
    x[16]     R55       1
    x[16]     R56       1
    x[16]     R57       1
    x[17]     OBJ       8
    x[17]     packing[2]  14
    x[17]     packing[3]  139
    x[17]     packing[4]  94
    x[17]     packing[5]  187
    x[17]     packing[6]  16
    x[17]     packing[7]  146
    x[17]     packing[9]  144
    x[17]     packing[10]  141
    x[17]     packing[11]  190
    x[17]     packing[12]  69
    x[17]     packing[13]  45
    x[17]     packing[14]  104
    x[17]     packing[17]  133
    x[17]     packing[19]  169
    x[17]     packing[20]  174
    x[17]     packing[22]  25
    x[17]     packing[24]  194
    x[17]     packing[25]  42
    x[17]     packing[28]  66
    x[17]     packing[29]  50
    x[17]     packing[32]  192
    x[17]     packing[34]  98
    x[17]     packing[35]  154
    x[17]     packing[38]  182
    x[17]     packing[39]  181
    x[17]     packing[40]  183
    x[17]     packing[41]  101
    x[17]     packing[42]  68
    x[17]     packing[43]  13
    x[17]     packing[44]  157
    x[17]     packing[45]  101
    x[17]     packing[46]  108
    x[17]     packing[47]  117
    x[17]     packing[49]  98
    x[18]     OBJ       176
    x[18]     packing[0]  97
    x[18]     packing[1]  118
    x[18]     packing[2]  106
    x[18]     packing[3]  198
    x[18]     packing[4]  117
    x[18]     packing[5]  190
    x[18]     packing[6]  80
    x[18]     packing[8]  126
    x[18]     packing[9]  80
    x[18]     packing[11]  94
    x[18]     packing[13]  2
    x[18]     packing[14]  48
    x[18]     packing[15]  177
    x[18]     packing[16]  101
    x[18]     packing[17]  72
    x[18]     packing[20]  102
    x[18]     packing[22]  43
    x[18]     packing[23]  107
    x[18]     packing[24]  4
    x[18]     packing[25]  83
    x[18]     packing[26]  180
    x[18]     packing[27]  12
    x[18]     packing[28]  131
    x[18]     packing[29]  149
    x[18]     packing[30]  91
    x[18]     packing[32]  56
    x[18]     packing[33]  47
    x[18]     packing[34]  92
    x[18]     packing[36]  17
    x[18]     packing[37]  163
    x[18]     packing[38]  133
    x[18]     packing[39]  33
    x[18]     packing[40]  83
    x[18]     packing[41]  41
    x[18]     packing[42]  87
    x[18]     packing[44]  1
    x[18]     packing[45]  12
    x[18]     packing[47]  196
    x[18]     packing[48]  158
    x[18]     packing[49]  139
    x[18]     R54       1
    x[18]     R55       1
    x[18]     R56       1
    x[18]     R57       1
    x[19]     OBJ       45
    x[19]     packing[1]  41
    x[19]     packing[2]  2
    x[19]     packing[4]  37
    x[19]     packing[5]  68
    x[19]     packing[6]  138
    x[19]     packing[7]  92
    x[19]     packing[8]  81
    x[19]     packing[9]  129
    x[19]     packing[11]  40
    x[19]     packing[13]  61
    x[19]     packing[14]  59
    x[19]     packing[15]  97
    x[19]     packing[17]  145
    x[19]     packing[18]  170
    x[19]     packing[19]  137
    x[19]     packing[21]  53
    x[19]     packing[24]  40
    x[19]     packing[25]  178
    x[19]     packing[26]  158
    x[19]     packing[29]  128
    x[19]     packing[30]  108
    x[19]     packing[32]  86
    x[19]     packing[33]  198
    x[19]     packing[34]  83
    x[19]     packing[36]  143
    x[19]     packing[37]  94
    x[19]     packing[38]  59
    x[19]     packing[39]  12
    x[19]     packing[40]  128
    x[19]     packing[41]  165
    x[19]     packing[42]  130
    x[19]     packing[43]  197
    x[19]     packing[44]  122
    x[19]     packing[45]  59
    x[19]     packing[48]  84
    x[19]     packing[49]  127
    x[20]     OBJ       99
    x[20]     packing[0]  72
    x[20]     packing[1]  148
    x[20]     packing[2]  31
    x[20]     packing[3]  19
    x[20]     packing[4]  132
    x[20]     packing[5]  31
    x[20]     packing[6]  189
    x[20]     packing[7]  117
    x[20]     packing[10]  4
    x[20]     packing[12]  97
    x[20]     packing[13]  191
    x[20]     packing[15]  63
    x[20]     packing[16]  27
    x[20]     packing[17]  185
    x[20]     packing[19]  45
    x[20]     packing[20]  102
    x[20]     packing[21]  75
    x[20]     packing[22]  185
    x[20]     packing[23]  153
    x[20]     packing[25]  68
    x[20]     packing[26]  157
    x[20]     packing[27]  11
    x[20]     packing[28]  65
    x[20]     packing[30]  41
    x[20]     packing[33]  190
    x[20]     packing[34]  86
    x[20]     packing[36]  27
    x[20]     packing[37]  158
    x[20]     packing[38]  67
    x[20]     packing[39]  29
    x[20]     packing[41]  167
    x[20]     packing[42]  30
    x[20]     packing[43]  115
    x[20]     packing[44]  52
    x[20]     packing[45]  139
    x[20]     packing[46]  8
    x[20]     packing[47]  124
    x[20]     packing[48]  55
    x[20]     packing[49]  102
    x[20]     R55       1
    x[20]     R56       1
    MARKER    'MARKER'                 'INTEND'
RHS
    RHS1      packing[0]  678
    RHS1      packing[1]  634
    RHS1      packing[2]  719
    RHS1      packing[3]  629
    RHS1      packing[4]  965
    RHS1      packing[5]  770
    RHS1      packing[6]  629
    RHS1      packing[7]  554
    RHS1      packing[8]  792
    RHS1      packing[9]  908
    RHS1      packing[10]  436
    RHS1      packing[11]  736
    RHS1      packing[12]  613
    RHS1      packing[13]  520
    RHS1      packing[14]  536
    RHS1      packing[15]  881
    RHS1      packing[16]  566
    RHS1      packing[17]  732
    RHS1      packing[18]  652
    RHS1      packing[19]  808
    RHS1      packing[20]  1065
    RHS1      packing[21]  731
    RHS1      packing[22]  611
    RHS1      packing[23]  721
    RHS1      packing[24]  620
    RHS1      packing[25]  775
    RHS1      packing[26]  759
    RHS1      packing[27]  390
    RHS1      packing[28]  737
    RHS1      packing[29]  723
    RHS1      packing[30]  844
    RHS1      packing[31]  746
    RHS1      packing[32]  851
    RHS1      packing[33]  784
    RHS1      packing[34]  1002
    RHS1      packing[35]  742
    RHS1      packing[36]  491
    RHS1      packing[37]  913
    RHS1      packing[38]  1153
    RHS1      packing[39]  656
    RHS1      packing[40]  1039
    RHS1      packing[41]  943
    RHS1      packing[42]  854
    RHS1      packing[43]  965
    RHS1      packing[44]  516
    RHS1      packing[45]  828
    RHS1      packing[46]  822
    RHS1      packing[47]  727
    RHS1      packing[48]  714
    RHS1      packing[49]  685
    RHS1      R54       5
    RHS1      R55       4
    RHS1      R56       6
    RHS1      R57       6
BOUNDS
 BV BND1      x[1]    
 BV BND1      x[2]    
 BV BND1      x[3]    
 BV BND1      x[4]    
 BV BND1      x[5]    
 BV BND1      x[6]    
 BV BND1      x[7]    
 BV BND1      x[8]    
 BV BND1      x[9]    
 BV BND1      x[10]   
 BV BND1      x[11]   
 BV BND1      x[12]   
 BV BND1      x[13]   
 BV BND1      x[14]   
 BV BND1      x[15]   
 BV BND1      x[16]   
 BV BND1      x[17]   
 BV BND1      x[18]   
 BV BND1      x[19]   
 BV BND1      x[20]   
ENDATA
